HUN,8,6,655
5,47,2,53,3,55,1,11,4,58,0,43
5,4,2,73,1,51,3,47,4,25,0,58
1,34,5,17,0,19,4,22,2,63,3,13
2,16,0,93,5,47,3,67,4,13,1,4
3,18,1,13,2,83,5,48,0,52,4,66
1,46,2,61,0,11,3,1,5,68,4,41
4,2,3,8,0,49,2,67,1,7,5,39
2,52,5,73,4,54,1,61,3,63,0,48
